p cnf 963 2472
51 -2 -1 0
-51 2 0
-51 1 0
52 -51 -3 0
-52 51 0
-52 3 0
53 -696 -4 0
-53 696 0
-53 4 0
54 -53 -697 0
-54 53 0
-54 697 0
55 -698 -699 0
-55 698 0
-55 699 0
56 -8 -7 0
-56 8 0
-56 7 0
57 -56 -9 0
-57 56 0
-57 9 0
58 -700 -55 0
-58 700 0
-58 55 0
59 -701 -702 0
-59 701 0
-59 702 0
60 -59 -12 0
-60 59 0
-60 12 0
61 -703 -58 0
-61 703 0
-61 58 0
62 -704 -705 0
-62 704 0
-62 705 0
63 -62 -706 0
-63 62 0
-63 706 0
64 -707 -61 0
-64 707 0
-64 61 0
65 -16 -706 0
-65 16 0
-65 706 0
66 -65 -17 0
-66 65 0
-66 17 0
67 -708 -64 0
-67 708 0
-67 64 0
68 -18 -7 0
-68 18 0
-68 7 0
69 -68 -19 0
-69 68 0
-69 19 0
70 -709 -67 0
-70 709 0
-70 67 0
71 -20 -710 0
-71 20 0
-71 710 0
72 -71 -711 0
-72 71 0
-72 711 0
73 -712 -70 0
-73 712 0
-73 70 0
74 -713 -714 0
-74 713 0
-74 714 0
75 -74 -697 0
-75 74 0
-75 697 0
76 -715 -73 0
-76 715 0
-76 73 0
77 -696 -1 0
-77 696 0
-77 1 0
78 -77 -716 0
-78 77 0
-78 716 0
79 -717 -76 0
-79 717 0
-79 76 0
80 -718 -719 0
-80 718 0
-80 719 0
81 -80 -716 0
-81 80 0
-81 716 0
82 -720 -79 0
-82 720 0
-82 79 0
83 -719 -721 0
-83 719 0
-83 721 0
84 -83 -25 0
-84 83 0
-84 25 0
85 -722 -82 0
-85 722 0
-85 82 0
86 -723 -724 0
-86 723 0
-86 724 0
87 -86 -725 0
-87 86 0
-87 725 0
88 -726 -85 0
-88 726 0
-88 85 0
89 -29 -727 0
-89 29 0
-89 727 0
90 -89 -11 0
-90 89 0
-90 11 0
91 -728 -88 0
-91 728 0
-91 88 0
92 -729 -730 0
-92 729 0
-92 730 0
93 -92 -731 0
-93 92 0
-93 731 0
94 -732 -91 0
-94 732 0
-94 91 0
95 -32 -733 0
-95 32 0
-95 733 0
96 -95 -734 0
-96 95 0
-96 734 0
97 -735 -94 0
-97 735 0
-97 94 0
98 -34 -705 0
-98 34 0
-98 705 0
99 -98 -716 0
-99 98 0
-99 716 0
100 -736 -97 0
-100 736 0
-100 97 0
101 -33 -1 0
-101 33 0
-101 1 0
102 -101 -28 0
-102 101 0
-102 28 0
103 -737 -100 0
-103 737 0
-103 100 0
104 -35 -738 0
-104 35 0
-104 738 0
105 -104 -739 0
-105 104 0
-105 739 0
106 -740 -103 0
-106 740 0
-106 103 0
107 -37 -714 0
-107 37 0
-107 714 0
108 -107 -38 0
-108 107 0
-108 38 0
109 -741 -106 0
-109 741 0
-109 106 0
110 -40 -39 0
-110 40 0
-110 39 0
111 -110 -19 0
-111 110 0
-111 19 0
112 -742 -109 0
-112 742 0
-112 109 0
113 -743 -744 0
-113 743 0
-113 744 0
114 -113 -745 0
-114 113 0
-114 745 0
115 -746 -112 0
-115 746 0
-115 112 0
116 -42 -747 0
-116 42 0
-116 747 0
117 -116 -44 0
-117 116 0
-117 44 0
118 -748 -115 0
-118 748 0
-118 115 0
119 -41 -33 0
-119 41 0
-119 33 0
120 -119 -43 0
-120 119 0
-120 43 0
121 -749 -118 0
-121 749 0
-121 118 0
122 -33 -704 0
-122 33 0
-122 704 0
123 -122 -750 0
-123 122 0
-123 750 0
124 -751 -121 0
-124 751 0
-124 121 0
125 -752 -19 0
-125 752 0
-125 19 0
126 -125 -20 0
-126 125 0
-126 20 0
127 -753 -124 0
-127 753 0
-127 124 0
128 -739 -721 0
-128 739 0
-128 721 0
129 -128 -754 0
-129 128 0
-129 754 0
130 -755 -127 0
-130 755 0
-130 127 0
131 -37 -6 0
-131 37 0
-131 6 0
132 -131 -756 0
-132 131 0
-132 756 0
133 -757 -130 0
-133 757 0
-133 130 0
134 -77 -750 0
-134 77 0
-134 750 0
135 -758 -133 0
-135 758 0
-135 133 0
136 -44 -32 0
-136 44 0
-136 32 0
137 -136 -43 0
-137 136 0
-137 43 0
138 -759 -135 0
-138 759 0
-138 135 0
139 -747 -22 0
-139 747 0
-139 22 0
140 -139 -729 0
-140 139 0
-140 729 0
141 -760 -138 0
-141 760 0
-141 138 0
142 -761 -22 0
-142 761 0
-142 22 0
143 -142 -33 0
-143 142 0
-143 33 0
144 -762 -141 0
-144 762 0
-144 141 0
145 -22 -18 0
-145 22 0
-145 18 0
146 -145 -763 0
-146 145 0
-146 763 0
147 -764 -144 0
-147 764 0
-147 144 0
148 -761 -724 0
-148 761 0
-148 724 0
149 -148 -765 0
-149 148 0
-149 765 0
150 -766 -147 0
-150 766 0
-150 147 0
151 -31 -7 0
-151 31 0
-151 7 0
152 -151 -22 0
-152 151 0
-152 22 0
153 -767 -150 0
-153 767 0
-153 150 0
154 -744 -39 0
-154 744 0
-154 39 0
155 -154 -30 0
-155 154 0
-155 30 0
156 -768 -153 0
-156 768 0
-156 153 0
157 -16 -7 0
-157 16 0
-157 7 0
158 -157 -745 0
-158 157 0
-158 745 0
159 -769 -156 0
-159 769 0
-159 156 0
160 -718 -16 0
-160 718 0
-160 16 0
161 -160 -20 0
-161 160 0
-161 20 0
162 -770 -159 0
-162 770 0
-162 159 0
163 -725 -19 0
-163 725 0
-163 19 0
164 -163 -745 0
-164 163 0
-164 745 0
165 -771 -162 0
-165 771 0
-165 162 0
166 -39 -16 0
-166 39 0
-166 16 0
167 -166 -772 0
-167 166 0
-167 772 0
168 -773 -165 0
-168 773 0
-168 165 0
169 -39 -37 0
-169 39 0
-169 37 0
170 -169 -36 0
-170 169 0
-170 36 0
171 -774 -168 0
-171 774 0
-171 168 0
172 -44 -24 0
-172 44 0
-172 24 0
173 -172 -17 0
-173 172 0
-173 17 0
174 -775 -171 0
-174 775 0
-174 171 0
175 -754 -42 0
-175 754 0
-175 42 0
176 -175 -24 0
-176 175 0
-176 24 0
177 -776 -174 0
-177 776 0
-177 174 0
178 -734 -777 0
-178 734 0
-178 777 0
179 -178 -725 0
-179 178 0
-179 725 0
180 -778 -177 0
-180 778 0
-180 177 0
181 -763 -719 0
-181 763 0
-181 719 0
182 -181 -38 0
-182 181 0
-182 38 0
183 -779 -180 0
-183 779 0
-183 180 0
184 -747 -704 0
-184 747 0
-184 704 0
185 -184 -701 0
-185 184 0
-185 701 0
186 -780 -183 0
-186 780 0
-186 183 0
187 -31 -772 0
-187 31 0
-187 772 0
188 -187 -25 0
-188 187 0
-188 25 0
189 -781 -186 0
-189 781 0
-189 186 0
190 -26 -772 0
-190 26 0
-190 772 0
191 -190 -41 0
-191 190 0
-191 41 0
192 -782 -189 0
-192 782 0
-192 189 0
193 -40 -765 0
-193 40 0
-193 765 0
194 -193 -711 0
-194 193 0
-194 711 0
195 -783 -192 0
-195 783 0
-195 192 0
196 -743 -738 0
-196 743 0
-196 738 0
197 -196 -784 0
-197 196 0
-197 784 0
198 -785 -195 0
-198 785 0
-198 195 0
199 -33 -29 0
-199 33 0
-199 29 0
200 -199 -786 0
-200 199 0
-200 786 0
201 -787 -198 0
-201 787 0
-201 198 0
202 -26 -16 0
-202 26 0
-202 16 0
203 -202 -24 0
-203 202 0
-203 24 0
204 -788 -201 0
-204 788 0
-204 201 0
205 -46 -731 0
-205 46 0
-205 731 0
206 -205 -25 0
-206 205 0
-206 25 0
207 -789 -204 0
-207 789 0
-207 204 0
208 -46 -697 0
-208 46 0
-208 697 0
209 -208 -731 0
-209 208 0
-209 731 0
210 -790 -207 0
-210 790 0
-210 207 0
211 -42 -37 0
-211 42 0
-211 37 0
212 -211 -731 0
-212 211 0
-212 731 0
213 -791 -210 0
-213 791 0
-213 210 0
214 -26 -719 0
-214 26 0
-214 719 0
215 -214 -43 0
-215 214 0
-215 43 0
216 -792 -213 0
-216 792 0
-216 213 0
217 -784 -23 0
-217 784 0
-217 23 0
218 -217 -697 0
-218 217 0
-218 697 0
219 -793 -216 0
-219 793 0
-219 216 0
220 -733 -13 0
-220 733 0
-220 13 0
221 -220 -738 0
-221 220 0
-221 738 0
222 -794 -219 0
-222 794 0
-222 219 0
223 -45 -710 0
-223 45 0
-223 710 0
224 -223 -30 0
-224 223 0
-224 30 0
225 -795 -222 0
-225 795 0
-225 222 0
226 -38 -714 0
-226 38 0
-226 714 0
227 -226 -47 0
-227 226 0
-227 47 0
228 -796 -225 0
-228 796 0
-228 225 0
229 -48 -23 0
-229 48 0
-229 23 0
230 -229 -20 0
-230 229 0
-230 20 0
231 -797 -228 0
-231 797 0
-231 228 0
232 -48 -26 0
-232 48 0
-232 26 0
233 -232 -38 0
-233 232 0
-233 38 0
234 -798 -231 0
-234 798 0
-234 231 0
235 -13 -6 0
-235 13 0
-235 6 0
236 -235 -754 0
-236 235 0
-236 754 0
237 -799 -234 0
-237 799 0
-237 234 0
238 -743 -37 0
-238 743 0
-238 37 0
239 -238 -43 0
-239 238 0
-239 43 0
240 -800 -237 0
-240 800 0
-240 237 0
241 -13 -2 0
-241 13 0
-241 2 0
242 -241 -754 0
-242 241 0
-242 754 0
243 -801 -240 0
-243 801 0
-243 240 0
244 -743 -27 0
-244 743 0
-244 27 0
245 -244 -46 0
-245 244 0
-245 46 0
246 -802 -243 0
-246 802 0
-246 243 0
247 -743 -16 0
-247 743 0
-247 16 0
248 -247 -25 0
-248 247 0
-248 25 0
249 -803 -246 0
-249 803 0
-249 246 0
250 -744 -18 0
-250 744 0
-250 18 0
251 -250 -743 0
-251 250 0
-251 743 0
252 -804 -249 0
-252 804 0
-252 249 0
253 -34 -18 0
-253 34 0
-253 18 0
254 -253 -786 0
-254 253 0
-254 786 0
255 -805 -252 0
-255 805 0
-255 252 0
256 -39 -733 0
-256 39 0
-256 733 0
257 -256 -40 0
-257 256 0
-257 40 0
258 -806 -255 0
-258 806 0
-258 255 0
259 -190 -704 0
-259 190 0
-259 704 0
260 -807 -258 0
-260 807 0
-260 258 0
261 -765 -7 0
-261 765 0
-261 7 0
262 -261 -754 0
-262 261 0
-262 754 0
263 -808 -260 0
-263 808 0
-263 260 0
264 -733 -710 0
-264 733 0
-264 710 0
265 -264 -809 0
-265 264 0
-265 809 0
266 -810 -263 0
-266 810 0
-266 263 0
267 -761 -710 0
-267 761 0
-267 710 0
268 -267 -704 0
-268 267 0
-268 704 0
269 -811 -266 0
-269 811 0
-269 266 0
270 -744 -8 0
-270 744 0
-270 8 0
271 -270 -812 0
-271 270 0
-271 812 0
272 -813 -269 0
-272 813 0
-272 269 0
273 -38 -718 0
-273 38 0
-273 718 0
274 -273 -21 0
-274 273 0
-274 21 0
275 -814 -272 0
-275 814 0
-275 272 0
276 -31 -27 0
-276 31 0
-276 27 0
277 -276 -706 0
-277 276 0
-277 706 0
278 -815 -275 0
-278 815 0
-278 275 0
279 -714 -18 0
-279 714 0
-279 18 0
280 -279 -745 0
-280 279 0
-280 745 0
281 -816 -278 0
-281 816 0
-281 278 0
282 -28 -702 0
-282 28 0
-282 702 0
283 -282 -11 0
-283 282 0
-283 11 0
284 -817 -281 0
-284 817 0
-284 281 0
285 -723 -750 0
-285 723 0
-285 750 0
286 -285 -818 0
-286 285 0
-286 818 0
287 -819 -284 0
-287 819 0
-287 284 0
288 -40 -29 0
-288 40 0
-288 29 0
289 -288 -739 0
-289 288 0
-289 739 0
290 -820 -287 0
-290 820 0
-290 287 0
291 -27 -16 0
-291 27 0
-291 16 0
292 -291 -763 0
-292 291 0
-292 763 0
293 -821 -290 0
-293 821 0
-293 290 0
294 -743 -2 0
-294 743 0
-294 2 0
295 -294 -37 0
-295 294 0
-295 37 0
296 -822 -293 0
-296 822 0
-296 293 0
297 -22 -702 0
-297 22 0
-297 702 0
298 -297 -763 0
-298 297 0
-298 763 0
299 -823 -296 0
-299 823 0
-299 296 0
300 -745 -702 0
-300 745 0
-300 702 0
301 -300 -824 0
-301 300 0
-301 824 0
302 -825 -299 0
-302 825 0
-302 299 0
303 -704 -729 0
-303 704 0
-303 729 0
304 -303 -19 0
-304 303 0
-304 19 0
305 -826 -302 0
-305 826 0
-305 302 0
306 -27 -8 0
-306 27 0
-306 8 0
307 -306 -24 0
-307 306 0
-307 24 0
308 -827 -305 0
-308 827 0
-308 305 0
309 -18 -10 0
-309 18 0
-309 10 0
310 -309 -16 0
-310 309 0
-310 16 0
311 -828 -308 0
-311 828 0
-311 308 0
312 -10 -696 0
-312 10 0
-312 696 0
313 -312 -14 0
-313 312 0
-313 14 0
314 -829 -311 0
-314 829 0
-314 311 0
315 -786 -710 0
-315 786 0
-315 710 0
316 -315 -49 0
-316 315 0
-316 49 0
317 -830 -314 0
-317 830 0
-317 314 0
318 -733 -18 0
-318 733 0
-318 18 0
319 -318 -12 0
-319 318 0
-319 12 0
320 -831 -317 0
-320 831 0
-320 317 0
321 -832 -719 0
-321 832 0
-321 719 0
322 -321 -747 0
-322 321 0
-322 747 0
323 -833 -320 0
-323 833 0
-323 320 0
324 -31 -721 0
-324 31 0
-324 721 0
325 -324 -12 0
-325 324 0
-325 12 0
326 -834 -323 0
-326 834 0
-326 323 0
327 -752 -7 0
-327 752 0
-327 7 0
328 -327 -38 0
-328 327 0
-328 38 0
329 -835 -326 0
-329 835 0
-329 326 0
330 -11 -5 0
-330 11 0
-330 5 0
331 -330 -19 0
-331 330 0
-331 19 0
332 -836 -329 0
-332 836 0
-332 329 0
333 -784 -44 0
-333 784 0
-333 44 0
334 -333 -837 0
-334 333 0
-334 837 0
335 -838 -332 0
-335 838 0
-335 332 0
336 -37 -33 0
-336 37 0
-336 33 0
337 -336 -745 0
-337 336 0
-337 745 0
338 -839 -335 0
-338 839 0
-338 335 0
339 -36 -756 0
-339 36 0
-339 756 0
340 -339 -21 0
-340 339 0
-340 21 0
341 -840 -338 0
-341 840 0
-341 338 0
342 -701 -729 0
-342 701 0
-342 729 0
343 -342 -21 0
-343 342 0
-343 21 0
344 -841 -341 0
-344 841 0
-344 341 0
345 -39 -29 0
-345 39 0
-345 29 0
346 -345 -37 0
-346 345 0
-346 37 0
347 -842 -344 0
-347 842 0
-347 344 0
348 -48 -8 0
-348 48 0
-348 8 0
349 -348 -12 0
-349 348 0
-349 12 0
350 -843 -347 0
-350 843 0
-350 347 0
351 -37 -4 0
-351 37 0
-351 4 0
352 -351 -30 0
-352 351 0
-352 30 0
353 -844 -350 0
-353 844 0
-353 350 0
354 -752 -16 0
-354 752 0
-354 16 0
355 -354 -19 0
-355 354 0
-355 19 0
356 -845 -353 0
-356 845 0
-356 353 0
357 -48 -22 0
-357 48 0
-357 22 0
358 -357 -734 0
-358 357 0
-358 734 0
359 -846 -356 0
-359 846 0
-359 356 0
360 -45 -719 0
-360 45 0
-360 719 0
361 -360 -812 0
-361 360 0
-361 812 0
362 -847 -359 0
-362 847 0
-362 359 0
363 -33 -16 0
-363 33 0
-363 16 0
364 -363 -704 0
-364 363 0
-364 704 0
365 -848 -362 0
-365 848 0
-365 362 0
366 -747 -24 0
-366 747 0
-366 24 0
367 -366 -716 0
-367 366 0
-367 716 0
368 -849 -365 0
-368 849 0
-368 365 0
369 -41 -11 0
-369 41 0
-369 11 0
370 -369 -765 0
-370 369 0
-370 765 0
371 -850 -368 0
-371 850 0
-371 368 0
372 -26 -702 0
-372 26 0
-372 702 0
373 -372 -1 0
-373 372 0
-373 1 0
374 -851 -371 0
-374 851 0
-374 371 0
375 -48 -45 0
-375 48 0
-375 45 0
376 -375 -43 0
-376 375 0
-376 43 0
377 -852 -374 0
-377 852 0
-377 374 0
378 -50 -4 0
-378 50 0
-378 4 0
379 -378 -49 0
-379 378 0
-379 49 0
380 -853 -377 0
-380 853 0
-380 377 0
381 -701 -772 0
-381 701 0
-381 772 0
382 -381 -756 0
-382 381 0
-382 756 0
383 -854 -380 0
-383 854 0
-383 380 0
384 -809 -35 0
-384 809 0
-384 35 0
385 -384 -49 0
-385 384 0
-385 49 0
386 -855 -383 0
-386 855 0
-386 383 0
387 -37 -750 0
-387 37 0
-387 750 0
388 -387 -11 0
-388 387 0
-388 11 0
389 -856 -386 0
-389 856 0
-389 386 0
390 -754 -697 0
-390 754 0
-390 697 0
391 -390 -12 0
-391 390 0
-391 12 0
392 -857 -389 0
-392 857 0
-392 389 0
393 -719 -22 0
-393 719 0
-393 22 0
394 -393 -704 0
-394 393 0
-394 704 0
395 -858 -392 0
-395 858 0
-395 392 0
396 -832 -696 0
-396 832 0
-396 696 0
397 -396 -765 0
-397 396 0
-397 765 0
398 -859 -395 0
-398 859 0
-398 395 0
399 -50 -2 0
-399 50 0
-399 2 0
400 -399 -719 0
-400 399 0
-400 719 0
401 -860 -398 0
-401 860 0
-401 398 0
402 -196 -714 0
-402 196 0
-402 714 0
403 -861 -401 0
-403 861 0
-403 401 0
404 -38 -18 0
-404 38 0
-404 18 0
405 -404 -745 0
-405 404 0
-405 745 0
406 -862 -403 0
-406 862 0
-406 403 0
407 -863 -702 0
-407 863 0
-407 702 0
408 -407 -734 0
-408 407 0
-408 734 0
409 -864 -406 0
-409 864 0
-409 406 0
410 -747 -738 0
-410 747 0
-410 738 0
411 -410 -44 0
-411 410 0
-411 44 0
412 -865 -409 0
-412 865 0
-412 409 0
413 -763 -2 0
-413 763 0
-413 2 0
414 -413 -824 0
-414 413 0
-414 824 0
415 -866 -412 0
-415 866 0
-415 412 0
416 -33 -730 0
-416 33 0
-416 730 0
417 -416 -818 0
-417 416 0
-417 818 0
418 -867 -415 0
-418 867 0
-418 415 0
419 -868 -721 0
-419 868 0
-419 721 0
420 -419 -718 0
-420 419 0
-420 718 0
421 -869 -418 0
-421 869 0
-421 418 0
422 -40 -17 0
-422 40 0
-422 17 0
423 -422 -711 0
-423 422 0
-423 711 0
424 -870 -421 0
-424 870 0
-424 421 0
425 -32 -28 0
-425 32 0
-425 28 0
426 -425 -15 0
-426 425 0
-426 15 0
427 -871 -424 0
-427 871 0
-427 424 0
428 -20 -12 0
-428 20 0
-428 12 0
429 -428 -837 0
-429 428 0
-429 837 0
430 -872 -427 0
-430 872 0
-430 427 0
431 -44 -23 0
-431 44 0
-431 23 0
432 -431 -25 0
-432 431 0
-432 25 0
433 -873 -430 0
-433 873 0
-433 430 0
434 -761 -8 0
-434 761 0
-434 8 0
435 -434 -765 0
-435 434 0
-435 765 0
436 -874 -433 0
-436 874 0
-436 433 0
437 -45 -743 0
-437 45 0
-437 743 0
438 -437 -9 0
-438 437 0
-438 9 0
439 -875 -436 0
-439 875 0
-439 436 0
440 -39 -10 0
-440 39 0
-440 10 0
441 -440 -27 0
-441 440 0
-441 27 0
442 -876 -439 0
-442 876 0
-442 439 0
443 -44 -743 0
-443 44 0
-443 743 0
444 -443 -731 0
-444 443 0
-444 731 0
445 -877 -442 0
-445 877 0
-445 442 0
446 -809 -725 0
-446 809 0
-446 725 0
447 -446 -25 0
-447 446 0
-447 25 0
448 -878 -445 0
-448 878 0
-448 445 0
449 -832 -22 0
-449 832 0
-449 22 0
450 -449 -42 0
-450 449 0
-450 42 0
451 -879 -448 0
-451 879 0
-451 448 0
452 -763 -706 0
-452 763 0
-452 706 0
453 -452 -714 0
-453 452 0
-453 714 0
454 -880 -451 0
-454 880 0
-454 451 0
455 -18 -11 0
-455 18 0
-455 11 0
456 -455 -15 0
-456 455 0
-456 15 0
457 -881 -454 0
-457 881 0
-457 454 0
458 -14 -738 0
-458 14 0
-458 738 0
459 -458 -812 0
-459 458 0
-459 812 0
460 -882 -457 0
-460 882 0
-460 457 0
461 -16 -738 0
-461 16 0
-461 738 0
462 -461 -701 0
-462 461 0
-462 701 0
463 -883 -460 0
-463 883 0
-463 460 0
464 -727 -696 0
-464 727 0
-464 696 0
465 -464 -739 0
-465 464 0
-465 739 0
466 -884 -463 0
-466 884 0
-466 463 0
467 -38 -734 0
-467 38 0
-467 734 0
468 -467 -711 0
-468 467 0
-468 711 0
469 -885 -466 0
-469 885 0
-469 466 0
470 -763 -886 0
-470 763 0
-470 886 0
471 -470 -25 0
-471 470 0
-471 25 0
472 -887 -469 0
-472 887 0
-472 469 0
473 -48 -727 0
-473 48 0
-473 727 0
474 -473 -44 0
-474 473 0
-474 44 0
475 -888 -472 0
-475 888 0
-475 472 0
476 -719 -11 0
-476 719 0
-476 11 0
477 -476 -46 0
-477 476 0
-477 46 0
478 -889 -475 0
-478 889 0
-478 475 0
479 -27 -2 0
-479 27 0
-479 2 0
480 -479 -42 0
-480 479 0
-480 42 0
481 -890 -478 0
-481 890 0
-481 478 0
482 -777 -710 0
-482 777 0
-482 710 0
483 -482 -11 0
-483 482 0
-483 11 0
484 -891 -481 0
-484 891 0
-484 481 0
485 -47 -37 0
-485 47 0
-485 37 0
486 -485 -21 0
-486 485 0
-486 21 0
487 -892 -484 0
-487 892 0
-487 484 0
488 -33 -2 0
-488 33 0
-488 2 0
489 -488 -34 0
-489 488 0
-489 34 0
490 -893 -487 0
-490 893 0
-490 487 0
491 -832 -8 0
-491 832 0
-491 8 0
492 -491 -11 0
-492 491 0
-492 11 0
493 -894 -490 0
-493 894 0
-493 490 0
494 -725 -2 0
-494 725 0
-494 2 0
495 -494 -43 0
-495 494 0
-495 43 0
496 -895 -493 0
-496 895 0
-496 493 0
497 -733 -772 0
-497 733 0
-497 772 0
498 -497 -711 0
-498 497 0
-498 711 0
499 -896 -496 0
-499 896 0
-499 496 0
500 -39 -18 0
-500 39 0
-500 18 0
501 -500 -784 0
-501 500 0
-501 784 0
502 -897 -499 0
-502 897 0
-502 499 0
503 -48 -29 0
-503 48 0
-503 29 0
504 -503 -23 0
-504 503 0
-504 23 0
505 -898 -502 0
-505 898 0
-505 502 0
506 -761 -723 0
-506 761 0
-506 723 0
507 -506 -739 0
-507 506 0
-507 739 0
508 -899 -505 0
-508 899 0
-508 505 0
509 -812 -750 0
-509 812 0
-509 750 0
510 -509 -44 0
-510 509 0
-510 44 0
511 -900 -508 0
-511 900 0
-511 508 0
512 -46 -744 0
-512 46 0
-512 744 0
513 -512 -754 0
-513 512 0
-513 754 0
514 -901 -511 0
-514 901 0
-514 511 0
515 -14 -1 0
-515 14 0
-515 1 0
516 -515 -784 0
-516 515 0
-516 784 0
517 -902 -514 0
-517 902 0
-517 514 0
518 -763 -777 0
-518 763 0
-518 777 0
519 -518 -36 0
-519 518 0
-519 36 0
520 -903 -517 0
-520 903 0
-520 517 0
521 -863 -6 0
-521 863 0
-521 6 0
522 -521 -756 0
-522 521 0
-522 756 0
523 -904 -520 0
-523 904 0
-523 520 0
524 -739 -31 0
-524 739 0
-524 31 0
525 -524 -809 0
-525 524 0
-525 809 0
526 -905 -523 0
-526 905 0
-526 523 0
527 -45 -19 0
-527 45 0
-527 19 0
528 -527 -745 0
-528 527 0
-528 745 0
529 -906 -526 0
-529 906 0
-529 526 0
530 -763 -733 0
-530 763 0
-530 733 0
531 -530 -747 0
-531 530 0
-531 747 0
532 -907 -529 0
-532 907 0
-532 529 0
533 -3 -2 0
-533 3 0
-533 2 0
534 -533 -36 0
-534 533 0
-534 36 0
535 -908 -532 0
-535 908 0
-535 532 0
536 -734 -747 0
-536 734 0
-536 747 0
537 -536 -714 0
-537 536 0
-537 714 0
538 -909 -535 0
-538 909 0
-538 535 0
539 -713 -7 0
-539 713 0
-539 7 0
540 -539 -2 0
-540 539 0
-540 2 0
541 -910 -538 0
-541 910 0
-541 538 0
542 -723 -20 0
-542 723 0
-542 20 0
543 -542 -25 0
-543 542 0
-543 25 0
544 -911 -541 0
-544 911 0
-544 541 0
545 -40 -34 0
-545 40 0
-545 34 0
546 -545 -25 0
-546 545 0
-546 25 0
547 -912 -544 0
-547 912 0
-547 544 0
548 -154 -696 0
-548 154 0
-548 696 0
549 -913 -547 0
-549 913 0
-549 547 0
550 -28 -5 0
-550 28 0
-550 5 0
551 -550 -6 0
-551 550 0
-551 6 0
552 -914 -549 0
-552 914 0
-552 549 0
553 -29 -702 0
-553 29 0
-553 702 0
554 -553 -21 0
-554 553 0
-554 21 0
555 -915 -552 0
-555 915 0
-555 552 0
556 -372 -43 0
-556 372 0
-556 43 0
557 -916 -555 0
-557 916 0
-557 555 0
558 -714 -730 0
-558 714 0
-558 730 0
559 -558 -49 0
-559 558 0
-559 49 0
560 -917 -557 0
-560 917 0
-560 557 0
561 -763 -15 0
-561 763 0
-561 15 0
562 -561 -716 0
-562 561 0
-562 716 0
563 -918 -560 0
-563 918 0
-563 560 0
564 -30 -710 0
-564 30 0
-564 710 0
565 -564 -25 0
-565 564 0
-565 25 0
566 -919 -563 0
-566 919 0
-566 563 0
567 -752 -18 0
-567 752 0
-567 18 0
568 -567 -17 0
-568 567 0
-568 17 0
569 -920 -566 0
-569 920 0
-569 566 0
570 -738 -772 0
-570 738 0
-570 772 0
571 -570 -731 0
-571 570 0
-571 731 0
572 -921 -569 0
-572 921 0
-572 569 0
573 -18 -6 0
-573 18 0
-573 6 0
574 -573 -824 0
-574 573 0
-574 824 0
575 -922 -572 0
-575 922 0
-575 572 0
576 -27 -5 0
-576 27 0
-576 5 0
577 -576 -754 0
-577 576 0
-577 754 0
578 -923 -575 0
-578 923 0
-578 575 0
579 -42 -733 0
-579 42 0
-579 733 0
580 -579 -49 0
-580 579 0
-580 49 0
581 -924 -578 0
-581 924 0
-581 578 0
582 -863 -26 0
-582 863 0
-582 26 0
583 -582 -3 0
-583 582 0
-583 3 0
584 -925 -581 0
-584 925 0
-584 581 0
585 -724 -697 0
-585 724 0
-585 697 0
586 -585 -43 0
-586 585 0
-586 43 0
587 -926 -584 0
-587 926 0
-587 584 0
588 -713 -15 0
-588 713 0
-588 15 0
589 -588 -711 0
-589 588 0
-589 711 0
590 -927 -587 0
-590 927 0
-590 587 0
591 -863 -772 0
-591 863 0
-591 772 0
592 -591 -763 0
-592 591 0
-592 763 0
593 -928 -590 0
-593 928 0
-593 590 0
594 -763 -713 0
-594 763 0
-594 713 0
595 -594 -49 0
-595 594 0
-595 49 0
596 -929 -593 0
-596 929 0
-596 593 0
597 -35 -32 0
-597 35 0
-597 32 0
598 -597 -47 0
-598 597 0
-598 47 0
599 -930 -596 0
-599 930 0
-599 596 0
600 -113 -19 0
-600 113 0
-600 19 0
601 -931 -599 0
-601 931 0
-601 599 0
602 -270 -711 0
-602 270 0
-602 711 0
603 -932 -601 0
-603 932 0
-603 601 0
604 -23 -4 0
-604 23 0
-604 4 0
605 -604 -49 0
-605 604 0
-605 49 0
606 -933 -603 0
-606 933 0
-606 603 0
607 -733 -7 0
-607 733 0
-607 7 0
608 -607 -27 0
-608 607 0
-608 27 0
609 -934 -606 0
-609 934 0
-609 606 0
610 -719 -13 0
-610 719 0
-610 13 0
611 -610 -36 0
-611 610 0
-611 36 0
612 -935 -609 0
-612 935 0
-612 609 0
613 -27 -710 0
-613 27 0
-613 710 0
614 -613 -745 0
-614 613 0
-614 745 0
615 -936 -612 0
-615 936 0
-615 612 0
616 -863 -725 0
-616 863 0
-616 725 0
617 -616 -837 0
-617 616 0
-617 837 0
618 -937 -615 0
-618 937 0
-618 615 0
619 -24 -6 0
-619 24 0
-619 6 0
620 -619 -47 0
-620 619 0
-620 47 0
621 -938 -618 0
-621 938 0
-621 618 0
622 -38 -19 0
-622 38 0
-622 19 0
623 -622 -718 0
-623 622 0
-623 718 0
624 -939 -621 0
-624 939 0
-624 621 0
625 -28 -710 0
-625 28 0
-625 710 0
626 -625 -718 0
-626 625 0
-626 718 0
627 -940 -624 0
-627 940 0
-627 624 0
628 -863 -29 0
-628 863 0
-628 29 0
629 -628 -8 0
-629 628 0
-629 8 0
630 -941 -627 0
-630 941 0
-630 627 0
631 -756 -11 0
-631 756 0
-631 11 0
632 -631 -818 0
-632 631 0
-632 818 0
633 -942 -630 0
-633 942 0
-633 630 0
634 -26 -13 0
-634 26 0
-634 13 0
635 -634 -718 0
-635 634 0
-635 718 0
636 -943 -633 0
-636 943 0
-636 633 0
637 -27 -696 0
-637 27 0
-637 696 0
638 -637 -734 0
-638 637 0
-638 734 0
639 -944 -636 0
-639 944 0
-639 636 0
640 -42 -3 0
-640 42 0
-640 3 0
641 -640 -824 0
-641 640 0
-641 824 0
642 -945 -639 0
-642 945 0
-642 639 0
643 -809 -739 0
-643 809 0
-643 739 0
644 -643 -47 0
-644 643 0
-644 47 0
645 -946 -642 0
-645 946 0
-645 642 0
646 -809 -37 0
-646 809 0
-646 37 0
647 -646 -824 0
-647 646 0
-647 824 0
648 -947 -645 0
-648 947 0
-648 645 0
649 -752 -22 0
-649 752 0
-649 22 0
650 -649 -46 0
-650 649 0
-650 46 0
651 -948 -648 0
-651 948 0
-651 648 0
652 -718 -730 0
-652 718 0
-652 730 0
653 -652 -837 0
-653 652 0
-653 837 0
654 -949 -651 0
-654 949 0
-654 651 0
655 -765 -2 0
-655 765 0
-655 2 0
656 -655 -25 0
-656 655 0
-656 25 0
657 -950 -654 0
-657 950 0
-657 654 0
658 -868 -763 0
-658 868 0
-658 763 0
659 -658 -49 0
-659 658 0
-659 49 0
660 -951 -657 0
-660 951 0
-660 657 0
661 -22 -729 0
-661 22 0
-661 729 0
662 -661 -46 0
-662 661 0
-662 46 0
663 -952 -660 0
-663 952 0
-663 660 0
664 -22 -8 0
-664 22 0
-664 8 0
665 -664 -756 0
-665 664 0
-665 756 0
666 -953 -663 0
-666 953 0
-666 663 0
667 -28 -697 0
-667 28 0
-667 697 0
668 -667 -824 0
-668 667 0
-668 824 0
669 -954 -666 0
-669 954 0
-669 666 0
670 -747 -2 0
-670 747 0
-670 2 0
671 -670 -11 0
-671 670 0
-671 11 0
672 -955 -669 0
-672 955 0
-672 669 0
673 -747 -29 0
-673 747 0
-673 29 0
674 -673 -28 0
-674 673 0
-674 28 0
675 -956 -672 0
-675 956 0
-675 672 0
676 -16 -729 0
-676 16 0
-676 729 0
677 -676 -49 0
-677 676 0
-677 49 0
678 -957 -675 0
-678 957 0
-678 675 0
679 -29 -696 0
-679 29 0
-679 696 0
680 -679 -818 0
-680 679 0
-680 818 0
681 -958 -678 0
-681 958 0
-681 678 0
682 -48 -41 0
-682 48 0
-682 41 0
683 -682 -24 0
-683 682 0
-683 24 0
684 -959 -681 0
-684 959 0
-684 681 0
685 -31 -22 0
-685 31 0
-685 22 0
686 -685 -697 0
-686 685 0
-686 697 0
687 -960 -684 0
-687 960 0
-687 684 0
688 -713 -5 0
-688 713 0
-688 5 0
689 -688 -30 0
-689 688 0
-689 30 0
690 -961 -687 0
-690 961 0
-690 687 0
691 -56 -745 0
-691 56 0
-691 745 0
692 -962 -690 0
-692 962 0
-692 690 0
693 -32 -22 0
-693 32 0
-693 22 0
694 -693 -711 0
-694 693 0
-694 711 0
695 -963 -692 0
-695 963 0
-695 692 0
-696 -5 0
696 5 0
-697 -6 0
697 6 0
-698 -54 0
698 54 0
-699 -52 0
699 52 0
-700 -57 0
700 57 0
-701 -11 0
701 11 0
-702 -10 0
702 10 0
-703 -60 0
703 60 0
-704 -14 0
704 14 0
-705 -13 0
705 13 0
-706 -15 0
706 15 0
-707 -63 0
707 63 0
-708 -66 0
708 66 0
-709 -69 0
709 69 0
-710 -4 0
710 4 0
-711 -21 0
711 21 0
-712 -72 0
712 72 0
-713 -22 0
713 22 0
-714 -19 0
714 19 0
-715 -75 0
715 75 0
-716 -17 0
716 17 0
-717 -78 0
717 78 0
-718 -24 0
718 24 0
-719 -23 0
719 23 0
-720 -81 0
720 81 0
-721 -16 0
721 16 0
-722 -84 0
722 84 0
-723 -27 0
723 27 0
-724 -26 0
724 26 0
-725 -28 0
725 28 0
-726 -87 0
726 87 0
-727 -18 0
727 18 0
-728 -90 0
728 90 0
-729 -9 0
729 9 0
-730 -8 0
730 8 0
-731 -30 0
731 30 0
-732 -93 0
732 93 0
-733 -31 0
733 31 0
-734 -33 0
734 33 0
-735 -96 0
735 96 0
-736 -99 0
736 99 0
-737 -102 0
737 102 0
-738 -7 0
738 7 0
-739 -36 0
739 36 0
-740 -105 0
740 105 0
-741 -108 0
741 108 0
-742 -111 0
742 111 0
-743 -42 0
743 42 0
-744 -41 0
744 41 0
-745 -43 0
745 43 0
-746 -114 0
746 114 0
-747 -32 0
747 32 0
-748 -117 0
748 117 0
-749 -120 0
749 120 0
-750 -3 0
750 3 0
-751 -123 0
751 123 0
-752 -37 0
752 37 0
-753 -126 0
753 126 0
-754 -44 0
754 44 0
-755 -129 0
755 129 0
-756 -12 0
756 12 0
-757 -132 0
757 132 0
-758 -134 0
758 134 0
-759 -137 0
759 137 0
-760 -140 0
760 140 0
-761 -39 0
761 39 0
-762 -143 0
762 143 0
-763 -40 0
763 40 0
-764 -146 0
764 146 0
-765 -38 0
765 38 0
-766 -149 0
766 149 0
-767 -152 0
767 152 0
-768 -155 0
768 155 0
-769 -158 0
769 158 0
-770 -161 0
770 161 0
-771 -164 0
771 164 0
-772 -2 0
772 2 0
-773 -167 0
773 167 0
-774 -170 0
774 170 0
-775 -173 0
775 173 0
-776 -176 0
776 176 0
-777 -29 0
777 29 0
-778 -179 0
778 179 0
-779 -182 0
779 182 0
-780 -185 0
780 185 0
-781 -188 0
781 188 0
-782 -191 0
782 191 0
-783 -194 0
783 194 0
-784 -45 0
784 45 0
-785 -197 0
785 197 0
-786 -20 0
786 20 0
-787 -200 0
787 200 0
-788 -203 0
788 203 0
-789 -206 0
789 206 0
-790 -209 0
790 209 0
-791 -212 0
791 212 0
-792 -215 0
792 215 0
-793 -218 0
793 218 0
-794 -221 0
794 221 0
-795 -224 0
795 224 0
-796 -227 0
796 227 0
-797 -230 0
797 230 0
-798 -233 0
798 233 0
-799 -236 0
799 236 0
-800 -239 0
800 239 0
-801 -242 0
801 242 0
-802 -245 0
802 245 0
-803 -248 0
803 248 0
-804 -251 0
804 251 0
-805 -254 0
805 254 0
-806 -257 0
806 257 0
-807 -259 0
807 259 0
-808 -262 0
808 262 0
-809 -46 0
809 46 0
-810 -265 0
810 265 0
-811 -268 0
811 268 0
-812 -34 0
812 34 0
-813 -271 0
813 271 0
-814 -274 0
814 274 0
-815 -277 0
815 277 0
-816 -280 0
816 280 0
-817 -283 0
817 283 0
-818 -47 0
818 47 0
-819 -286 0
819 286 0
-820 -289 0
820 289 0
-821 -292 0
821 292 0
-822 -295 0
822 295 0
-823 -298 0
823 298 0
-824 -49 0
824 49 0
-825 -301 0
825 301 0
-826 -304 0
826 304 0
-827 -307 0
827 307 0
-828 -310 0
828 310 0
-829 -313 0
829 313 0
-830 -316 0
830 316 0
-831 -319 0
831 319 0
-832 -50 0
832 50 0
-833 -322 0
833 322 0
-834 -325 0
834 325 0
-835 -328 0
835 328 0
-836 -331 0
836 331 0
-837 -25 0
837 25 0
-838 -334 0
838 334 0
-839 -337 0
839 337 0
-840 -340 0
840 340 0
-841 -343 0
841 343 0
-842 -346 0
842 346 0
-843 -349 0
843 349 0
-844 -352 0
844 352 0
-845 -355 0
845 355 0
-846 -358 0
846 358 0
-847 -361 0
847 361 0
-848 -364 0
848 364 0
-849 -367 0
849 367 0
-850 -370 0
850 370 0
-851 -373 0
851 373 0
-852 -376 0
852 376 0
-853 -379 0
853 379 0
-854 -382 0
854 382 0
-855 -385 0
855 385 0
-856 -388 0
856 388 0
-857 -391 0
857 391 0
-858 -394 0
858 394 0
-859 -397 0
859 397 0
-860 -400 0
860 400 0
-861 -402 0
861 402 0
-862 -405 0
862 405 0
-863 -35 0
863 35 0
-864 -408 0
864 408 0
-865 -411 0
865 411 0
-866 -414 0
866 414 0
-867 -417 0
867 417 0
-868 -48 0
868 48 0
-869 -420 0
869 420 0
-870 -423 0
870 423 0
-871 -426 0
871 426 0
-872 -429 0
872 429 0
-873 -432 0
873 432 0
-874 -435 0
874 435 0
-875 -438 0
875 438 0
-876 -441 0
876 441 0
-877 -444 0
877 444 0
-878 -447 0
878 447 0
-879 -450 0
879 450 0
-880 -453 0
880 453 0
-881 -456 0
881 456 0
-882 -459 0
882 459 0
-883 -462 0
883 462 0
-884 -465 0
884 465 0
-885 -468 0
885 468 0
-886 -1 0
886 1 0
-887 -471 0
887 471 0
-888 -474 0
888 474 0
-889 -477 0
889 477 0
-890 -480 0
890 480 0
-891 -483 0
891 483 0
-892 -486 0
892 486 0
-893 -489 0
893 489 0
-894 -492 0
894 492 0
-895 -495 0
895 495 0
-896 -498 0
896 498 0
-897 -501 0
897 501 0
-898 -504 0
898 504 0
-899 -507 0
899 507 0
-900 -510 0
900 510 0
-901 -513 0
901 513 0
-902 -516 0
902 516 0
-903 -519 0
903 519 0
-904 -522 0
904 522 0
-905 -525 0
905 525 0
-906 -528 0
906 528 0
-907 -531 0
907 531 0
-908 -534 0
908 534 0
-909 -537 0
909 537 0
-910 -540 0
910 540 0
-911 -543 0
911 543 0
-912 -546 0
912 546 0
-913 -548 0
913 548 0
-914 -551 0
914 551 0
-915 -554 0
915 554 0
-916 -556 0
916 556 0
-917 -559 0
917 559 0
-918 -562 0
918 562 0
-919 -565 0
919 565 0
-920 -568 0
920 568 0
-921 -571 0
921 571 0
-922 -574 0
922 574 0
-923 -577 0
923 577 0
-924 -580 0
924 580 0
-925 -583 0
925 583 0
-926 -586 0
926 586 0
-927 -589 0
927 589 0
-928 -592 0
928 592 0
-929 -595 0
929 595 0
-930 -598 0
930 598 0
-931 -600 0
931 600 0
-932 -602 0
932 602 0
-933 -605 0
933 605 0
-934 -608 0
934 608 0
-935 -611 0
935 611 0
-936 -614 0
936 614 0
-937 -617 0
937 617 0
-938 -620 0
938 620 0
-939 -623 0
939 623 0
-940 -626 0
940 626 0
-941 -629 0
941 629 0
-942 -632 0
942 632 0
-943 -635 0
943 635 0
-944 -638 0
944 638 0
-945 -641 0
945 641 0
-946 -644 0
946 644 0
-947 -647 0
947 647 0
-948 -650 0
948 650 0
-949 -653 0
949 653 0
-950 -656 0
950 656 0
-951 -659 0
951 659 0
-952 -662 0
952 662 0
-953 -665 0
953 665 0
-954 -668 0
954 668 0
-955 -671 0
955 671 0
-956 -674 0
956 674 0
-957 -677 0
957 677 0
-958 -680 0
958 680 0
-959 -683 0
959 683 0
-960 -686 0
960 686 0
-961 -689 0
961 689 0
-962 -691 0
962 691 0
-963 -694 0
963 694 0
695 0
